data;

param n:=26;
param p:=3;
param r:=[1] 0 [2] 0 [3] 4 [4] 3 [5] 1 [6] 9 [7] 4 [8] 14 [9] 0 [10] 25 [11] 1 [12] 31 [13] 22 [14] 7 [15] 41 [16] 41 [17] 25 [18] 8 [19] 35 [20] 46 [21] 23 [22] 39 [23] 49 [24] 39 [25] 13 [26] 65 ;
param w:=[1] 80 [2] 4 [3] 96 [4] 55 [5] 57 [6] 96 [7] 42 [8] 57 [9] 26 [10] 14 [11] 33 [12] 72 [13] 42 [14] 13 [15] 29 [16] 91 [17] 85 [18] 37 [19] 27 [20] 2 [21] 48 [22] 81 [23] 99 [24] 12 [25] 22 [26] 25 ;

end;
